
Gurobi 9.5.1 (linux64) logging started Wed Mar  9 18:05:34 2022

Set parameter LogFile to value "../results/logs/log_2022_03_09_17_57.csv_10_30.log"
Set parameter Method to value 3
Gurobi Optimizer version 9.5.1 build v9.5.1rc2 (linux64)
Thread count: 8 physical cores, 8 logical processors, using up to 8 threads
Optimize a model with 157 rows, 9882 columns and 7489 nonzeros
Model fingerprint: 0xb072264e
Variable types: 4941 continuous, 4941 integer (4941 binary)
Coefficient statistics:
  Matrix range     [1e+00, 1e+01]
  Objective range  [1e+00, 1e+00]
  Bounds range     [1e+00, 1e+00]
  RHS range        [1e+00, 3e+01]
Found heuristic solution: objective -0.0000000
Presolve removed 116 rows and 9815 columns
Presolve time: 0.00s
Presolved: 41 rows, 67 columns, 215 nonzeros
Extracted 18 lazy constraints
Variable types: 31 continuous, 36 integer (35 binary)

Root relaxation: objective 3.900000e+01, 11 iterations, 0.00 seconds (0.00 work units)

    Nodes    |    Current Node    |     Objective Bounds      |     Work
 Expl Unexpl |  Obj  Depth IntInf | Incumbent    BestBd   Gap | It/Node Time

     0     0   16.64227    0   10   -0.00000   16.64227      -     -    0s
H    0     0                       5.0000000   16.64227   233%     -    0s
     0     0   14.22906    0    7    5.00000   14.22906   185%     -    0s
H    0     0                      13.0000000   14.22906  9.45%     -    0s
     0     0   14.22352    0   10   13.00000   14.22352  9.41%     -    0s
     0     0   14.22333    0    6   13.00000   14.22333  9.41%     -    0s
     0     0   14.17091    0    7   13.00000   14.17091  9.01%     -    0s
     0     0   14.16349    0    7   13.00000   14.16349  8.95%     -    0s
     0     0   14.11111    0    6   13.00000   14.11111  8.55%     -    0s
     0     0   14.11111    0    8   13.00000   14.11111  8.55%     -    0s
     0     0   14.11111    0    6   13.00000   14.11111  8.55%     -    0s
     0     0   14.11111    0    6   13.00000   14.11111  8.55%     -    0s
     0     0   14.11111    0    5   13.00000   14.11111  8.55%     -    0s
     0     0   14.11111    0    7   13.00000   14.11111  8.55%     -    0s
     0     0   14.11111    0    6   13.00000   14.11111  8.55%     -    0s
     0     0   14.11111    0    8   13.00000   14.11111  8.55%     -    0s
     0     0   14.10000    0   10   13.00000   14.10000  8.46%     -    0s
H    0     0                      14.0000000   14.10000  0.71%     -    0s
     0     0   14.00000    0   10   14.00000   14.00000  0.00%     -    0s

Cutting planes:
  Gomory: 4
  Cover: 3
  MIR: 5

Explored 1 nodes (158 simplex iterations) in 0.04 seconds (0.01 work units)
Thread count was 8 (of 8 available processors)

Solution count 5: 14 13 13 ... -0

Optimal solution found (tolerance 1.00e-04)
Best objective 1.400000000000e+01, best bound 1.400000000000e+01, gap 0.0000%
